197 3925
 2 3 4 5 6 7 8 9 10 11 12 13 14 15 16 33 34 35 36 37 38 39 40 41 42 43 44 45 46 47 48 49 50 51 52 53 54 55 56 57 59 60 62 63 64 65 67 68 71 73 74 75 77 80 83 85 87 88 90 91 93 96 99 102 104 107 108 109 111 112 114 117 118 120 121 125 126 127 128 129 130 131 135 136 137 138 139 142 144 145 146 147 148 149 150 151 152 153 154 157 160 161 162 163 164 165 166 169 173 174 176 177 178 181 184 187 189 191 192 195 197
 3 4 5 6 7 8 9 10 11 12 13 14 15 16 33 34 35 36 37 38 39 40 41 42 43 44 45 46 47 48 49 50 51 52 53 54 55 56 57 59 60 62 63 64 65 67 68 71 73 74 75 77 80 83 85 87 88 90 91 93 96 99 102 104 107 108 109 111 112 114 117 118 120 121 125 126 127 128 129 130 131 135 136 137 138 139 142 144 145 146 147 148 149 150 151 152 153 154 157 160 161 162 163 164 165 166 169 173 174 176 177 178 181 184 187 189 191 192 195 197
 4 5 6 7 8 9 10 11 12 13 14 15 16 34 39 40 41 42 43 44 45 46 47 48 49 50 51 52 53 54 55 56 57 59 60 62 63 64 65 67 68 71 74 75 80 121 125 126 127 128 129 130 131 135 136 137 138 139 145 147 149 150 151 153 154 160 161 162 163 164 165 166 173 174 176 177 178 191 192
 5 6 7 8 9 10 11 12 13 14 15 16 34 47 48 49 50 51 52 53 54 55 65 67 68 71 74 75 80 121 125 126 127 128 129 130 131 135 136 137 138 139 145 147 149 150 151 153 154 160 161 162 163 164 165 166 173 174 176 177 178 191 192
 6 7 8 9 10 11 12 13 14 15 16 34 39 47 48 49 50 51 52 53 54 55 65 67 68 71 74 75 80 121 125 126 127 128 129 130 131 135 136 137 138 139 145 147 149 150 151 153 154 160 161 162 163 164 165 166 173 174 176 177 178 191 192
 7 8 9 10 11 12 13 14 15 16 34 39 40 47 48 49 50 51 52 53 54 55 65 67 68 71 74 75 80 121 125 126 127 128 129 130 131 135 136 137 138 139 145 147 149 150 151 153 154 160 161 162 163 164 165 166 173 174 176 177 178 191 192
 8 9 10 11 12 13 14 15 16 34 39 40 41 47 48 49 50 51 52 53 54 55 65 67 68 71 74 75 80 121 125 126 127 128 129 130 131 135 136 137 138 139 145 147 149 150 151 153 154 160 161 162 163 164 165 166 173 174 176 177 178 191 192
 9 10 11 12 13 14 15 16 34 39 40 41 42 47 48 49 50 51 52 53 54 55 65 67 68 71 74 75 80 121 125 126 127 128 129 130 131 135 136 137 138 139 145 147 149 150 151 153 154 160 161 162 163 164 165 166 173 174 176 177 178 191 192
 10 11 12 13 14 15 16 34 39 40 41 42 43 47 48 49 50 51 52 53 54 55 65 67 68 71 74 75 80 121 125 126 127 128 129 130 131 135 136 137 138 139 145 147 149 150 151 153 154 160 161 162 163 164 165 166 173 174 176 177 178 191 192
 11 12 13 14 15 16 34 39 40 41 42 43 44 47 48 49 50 51 52 53 54 55 65 67 68 71 74 75 80 121 125 126 127 128 129 130 131 135 136 137 138 139 145 147 149 150 151 153 154 160 161 162 163 164 165 166 173 174 176 177 178 191 192
 12 13 14 15 16 34 39 40 41 42 43 44 45 46 47 48 49 50 51 52 53 54 55 65 67 68 71 74 75 80 121 125 126 127 128 129 130 131 135 136 137 138 139 145 147 149 150 151 153 154 160 161 162 163 164 165 166 173 174 176 177 178 191 192
 13 14 15 16 34 39 40 41 42 43 44 45 46 47 48 49 50 51 52 53 54 55 56 57 65 67 68 71 74 75 80 121 125 126 127 128 129 130 131 135 136 137 138 139 145 147 149 150 151 153 154 160 161 162 163 164 165 166 173 174 176 177 178 191 192
 14 15 16 34 39 40 41 42 43 44 45 46 47 48 49 50 51 52 53 54 55 56 57 59 60 65 67 68 71 74 75 80 121 125 126 127 128 129 130 131 135 136 137 138 139 145 147 149 150 151 153 154 160 161 162 163 164 165 166 173 174 176 177 178 191 192
 15 16 34 39 40 41 42 43 44 45 46 47 48 49 50 51 52 53 54 55 56 57 59 60 62 65 67 68 71 74 75 80 121 125 126 127 128 129 130 131 135 136 137 138 139 145 147 149 150 151 153 154 160 161 162 163 164 165 166 173 174 176 177 178 191 192
 16 34 47 48 49 50 51 52 53 54 55 65 67 68 71 74 75 80 121 125 126 127 128 129 130 131 135 136 137 138 139 145 147 149 150 151 153 154 160 161 162 163 164 165 166 173 174 176 177 178 191 192
 34 39 40 41 42 43 44 45 47 48 49 50 51 52 53 54 55 65 67 68 71 74 75 80 121 125 126 127 128 129 130 131 135 136 137 138 139 145 147 149 150 151 153 154 160 161 162 163 164 165 166 173 174 176 177 178 191 192
 18 19 20 21 22 23 24 25 26 27 28 29 30 31 32 33 34 35 36 37 38 39 40 41 42 43 44 45 46 47 48 49 50 51 52 53 54 55 56 57 59 60 62 63 64 65 67 68 71 73 74 75 77 80 83 85 87 88 90 91 93 96 99 102 104 107 108 109 111 112 114 117 118 120 121 125 126 127 128 129 130 131 135 136 137 138 139 142 144 145 146 147 148 149 150 151 152 153 154 157 160 161 162 163 164 165 166 169 173 174 176 177 178 181 184 187 189 191 192 195 197
 19 20 21 22 23 24 25 26 27 28 29 30 31 32 33 35 36 37 38 39 40 41 42 43 44 45 46 56 57 59 60 62 63 64 73 77 83 85 87 88 90 91 93 96 99 102 104 107 108 109 111 112 114 117 118 120 142 144 146 148 152 157 169 181 184 187 189 195 197
 20 21 22 23 24 25 26 27 28 29 30 31 32 33 35 36 37 38 39 40 41 42 43 44 45 46 47 56 57 59 60 62 63 64 73 77 83 85 87 88 90 91 93 96 99 102 104 107 108 109 111 112 114 117 118 120 142 144 146 148 152 157 169 181 184 187 189 195 197
 21 22 23 24 25 26 27 28 29 30 31 32 33 35 36 37 38 39 40 41 42 43 44 45 46 47 48 56 57 59 60 62 63 64 73 77 83 85 87 88 90 91 93 96 99 102 104 107 108 109 111 112 114 117 118 120 142 144 146 148 152 157 169 181 184 187 189 195 197
 22 23 24 25 26 27 28 29 30 31 32 33 35 36 37 38 39 40 41 42 43 44 45 46 47 48 49 56 57 59 60 62 63 64 73 77 83 85 87 88 90 91 93 96 99 102 104 107 108 109 111 112 114 117 118 120 142 144 146 148 152 157 169 181 184 187 189 195 197
 23 24 25 26 27 28 29 30 31 32 33 35 36 37 38 39 40 41 42 43 44 45 46 47 48 49 50 56 57 59 60 62 63 64 73 77 83 85 87 88 90 91 93 96 99 102 104 107 108 109 111 112 114 117 118 120 142 144 146 148 152 157 169 181 184 187 189 195 197
 24 25 26 27 28 29 30 31 32 33 35 36 37 38 39 40 41 42 43 44 45 46 47 48 49 50 51 56 57 59 60 62 63 64 73 77 83 85 87 88 90 91 93 96 99 102 104 107 108 109 111 112 114 117 118 120 142 144 146 148 152 157 169 181 184 187 189 195 197
 25 26 27 28 29 30 31 32 33 35 36 37 38 39 40 41 42 43 44 45 46 47 48 49 50 51 52 56 57 59 60 62 63 64 73 77 83 85 87 88 90 91 93 96 99 102 104 107 108 109 111 112 114 117 118 120 142 144 146 148 152 157 169 181 184 187 189 195 197
 26 27 28 29 30 31 32 33 35 36 37 38 39 40 41 42 43 44 45 46 47 48 49 50 51 52 53 56 57 59 60 62 63 64 73 77 83 85 87 88 90 91 93 96 99 102 104 107 108 109 111 112 114 117 118 120 142 144 146 148 152 157 169 181 184 187 189 195 197
 27 28 29 30 31 32 33 35 36 37 38 39 40 41 42 43 44 45 46 47 48 49 50 51 52 53 54 56 57 59 60 62 63 64 73 77 83 85 87 88 90 91 93 96 99 102 104 107 108 109 111 112 114 117 118 120 142 144 146 148 152 157 169 181 184 187 189 195 197
 28 29 30 31 32 33 35 36 37 38 39 40 41 42 43 44 45 46 56 57 59 60 62 63 64 73 77 83 85 87 88 90 91 93 96 99 102 104 107 108 109 111 112 114 117 118 120 142 144 146 148 152 157 169 181 184 187 189 195 197
 29 30 31 32 33 35 36 37 38 39 40 41 42 43 44 45 46 56 57 59 60 62 63 64 73 77 83 85 87 88 90 91 93 96 99 102 104 107 108 109 111 112 114 117 118 120 142 144 146 148 152 157 169 181 184 187 189 195 197
 30 31 32 33 35 36 37 38 39 40 41 42 43 44 45 46 56 57 59 60 62 63 64 73 77 83 85 87 88 90 91 93 96 99 102 104 107 108 109 111 112 114 117 118 120 142 144 146 148 152 157 169 181 184 187 189 195 197
 31 32 33 35 36 37 38 39 40 41 42 43 44 45 46 56 57 59 60 62 63 64 73 77 83 85 87 88 90 91 93 96 99 102 104 107 108 109 111 112 114 117 118 120 142 144 146 148 152 157 169 181 184 187 189 195 197
 32 33 35 36 37 38 39 40 41 42 43 44 45 46 56 57 59 60 62 63 64 73 77 83 85 87 88 90 91 93 96 99 102 104 107 108 109 111 112 114 117 118 120 142 144 146 148 152 157 169 181 184 187 189 195 197
 33 35 36 37 38 39 40 41 42 43 44 45 46 56 57 59 60 62 63 64 73 77 83 85 87 88 90 91 93 96 99 102 104 107 108 109 111 112 114 117 118 120 142 144 146 148 152 157 169 181 184 187 189 195 197
 35 36 37 39 40 41 42 43 44 45 46 56 57 59 60 62 63 64 83 85 87 88 91 99 104 107 111 112 114 117 118 120 142 144 146 148 152 157 169 181
 47 48 49 50 51 52 53 54 55 65 67 71 74 75 80 131 135
 39 40 41 42 43 44 45 46 56 57 59 60 62 63 64 83 85 87 88 91 99 104 107 111 112 114 117 118 120 144 146 148 152 157
 39 40 41 42 43 44 45 46 56 57 59 60 62 63 64 83 85 87 88 91 99 104 107 111 112 114 117 118 120 181
 39 40 41 42 43 44 45 46 56 57 59 60 62 63 64 83 85 87 88 91 99 104 107 111 112 114 117 118 120 169
 39 40 41 42 43 44 45 46 56 57 59 60 187 189 195
 40 41 42 43 44 45 46 56 57 59 60 62 63 64 73 77 83 85 87 88 90 91 93 96 99 102 104 107 108 109 111 112 114 117 118 120 142 144 146 148 152 157 169 181 184 187 189 195 197
 41 42 43 44 45 46 56 57 59 60 62 63 64 73 77 83 85 87 88 90 91 93 96 99 102 104 107 108 109 111 112 114 117 118 120 142 144 146 148 152 157 169 181 184 187 189 195 197
 42 43 44 45 46 56 57 59 60 62 63 64 73 77 83 85 87 88 90 91 93 96 99 102 104 107 108 109 111 112 114 117 118 120 142 144 146 148 152 157 169 181 184 187 189 195 197
 43 44 45 46 56 57 59 60 62 63 64 73 77 83 85 87 88 90 91 93 96 99 102 104 107 108 109 111 112 114 117 118 120 142 144 146 148 152 157 169 181 184 187 189 195 197
 44 45 46 56 57 59 60 62 63 64 73 77 83 85 87 88 90 91 93 96 99 102 104 107 108 109 111 112 114 117 118 120 142 144 146 148 152 157 169 181 184 187 189 195 197
 45 46 56 57 59 60 62 63 64 73 77 83 85 87 88 90 91 93 96 99 102 104 107 108 109 111 112 114 117 118 120 142 144 146 148 152 157 169 181 184 187 189 195 197
 46 56 57 59 60 62 63 64 73 77 83 85 87 88 90 91 93 96 99 102 104 107 108 109 111 112 114 117 118 120 142 144 146 148 152 157 169 181 184 187 189 195 197
 56 57 59 60 62 63 64 73 77 83 85 87 88 90 91 93 96 99 102 104 107 108 109 111 112 114 117 118 120 142 144 146 148 152 157 169 181 184 187 189 195 197
 48 49 50 51 52 53 54 55 65 67 68 71 74 75 80 121 125 126 127 128 129 130 131 135 136 137 138 139 145 147 149 150 151 153 154 160 161 162 163 164 165 166 173 174 176 177 178 191 192
 49 50 51 52 53 54 55 65 67 68 71 74 75 80 121 125 126 127 128 129 130 131 135 136 137 138 139 145 147 149 150 151 153 154 160 161 162 163 164 165 166 173 174 176 177 178 191 192
 50 51 52 53 54 55 65 67 68 71 74 75 80 121 125 126 127 128 129 130 131 135 136 137 138 139 145 147 149 150 151 153 154 160 161 162 163 164 165 166 173 174 176 177 178 191 192
 51 52 53 54 55 65 67 68 71 74 75 80 121 125 126 127 128 129 130 131 135 136 137 138 139 145 147 149 150 151 153 154 160 161 162 163 164 165 166 173 174 176 177 178 191 192
 52 53 54 55 65 67 68 71 74 75 80 121 125 126 127 128 129 130 131 135 136 137 138 139 145 147 149 150 151 153 154 160 161 162 163 164 165 166 173 174 176 177 178 191 192
 53 54 55 65 67 68 71 74 75 80 121 125 126 127 128 129 130 131 135 136 137 138 139 145 147 149 150 151 153 154 160 161 162 163 164 165 166 173 174 176 177 178 191 192
 54 55 65 67 68 71 74 75 80 121 125 126 127 128 129 130 131 135 136 137 138 139 145 147 149 150 151 153 154 160 161 162 163 164 165 166 173 174 176 177 178 191 192
 55 65 67 68 71 74 75 80 121 125 126 127 128 129 130 131 135 136 137 138 139 145 147 149 150 151 153 154 160 161 162 163 164 165 166 173 174 176 177 178 191 192
 65 67 68 71 74 75 80 121 125 126 127 128 129 130 131 135 136 137 138 139 145 147 149 150 151 153 154 160 161 162 163 164 165 166 173 174 176 177 178 191 192
 57 59 60 62 63 64 73 77 83 85 87 88 90 91 93 96 99 102 104 107 108 109 111 112 114 117 118 120 142 144 146 148 152 157 169 181 184 187 189 195 197
 59 60 62 63 64 73 77 83 85 87 88 90 91 93 96 99 102 104 107 108 109 111 112 114 117 118 120 142 144 146 148 152 157 169 181 184 187 189 195 197

 60 62 63 64 73 77 83 85 87 88 90 91 93 96 99 102 104 107 108 109 111 112 114 117 118 120 142 144 146 148 152 157 169 181 184 187 189 195 197
 62 63 64 73 77 83 85 87 88 90 91 93 96 99 102 104 107 108 109 111 112 114 117 118 120 142 144 146 148 152 157 169 181 184 187 189 195 197

 63 64 73 77 83 85 87 88 90 91 93 96 99 102 104 107 108 109 111 112 114 117 118 120 142 144 146 148 152 157 169 181 184 187 197
 64 73 77 83 85 87 88 90 91 93 96 99 102 104 107 108 109 111 112 114 117 118 120 142 144 146 148 152 157 169 181
 73 77 83 85 87 88 90 91 93 96 99 102 104 107 108 109 111 112 114 117 118 120 142 144 146 148 152 157 169 181
 67 68 71 74 75 80 121 125 126 127 128 129 130 131 135 136 137 138 139 145 147 149 150 151 153 154 160 161 162 163 164 165 166 173 174 176 177 178

 68 71 74 75 80 121 125 126 127 128 129 130 131 135 136 137 138 139 145 147 149 150 151 153 154 160 161 162 163 164 165 166 173 174 176 177 178



 74 75 80 121 125 126 127 128 129 130 131 135 136 137 138 139 145 147 149 150 151 153 154 160 161 162 163 164 165 166 173 174 176 177 178

 77 83 85 87 88 90 91 93 96 99 102 104 107 108 109 111 112 114 117 118 120
 75 80 121 125 126 127 128 129 130 131 135 136 137 138 139 145 147 149 150 151 153 154 160 161 162 163 164 165 166 173 174 176 177 178
 80 121 125 126 127 128 129 130 131 135 136 137 138 139 145 147 149 150 151 153 154 160 161 162 163 164 165 166 173 174 176 177 178




 121 125 126 127 128 129 130 131 135 136 137 138 139 145 147 149 150 151 153 154 160 161 162 163 164 165 166 173 174 176 177 178


 85 87 88 90 91 93 96 99 102 104 107 108 109 111 112 114 117 118 120 142 144 146 148 152 157 169 181

 87 88 90 91 93 96 99 102 104 107 108 109 111 112 114 117 118 120 142 144 146 148 152 157 169 181

 88 90 91 93 96 99 102 104 107 108 109 111 112 114 117 118 120 142 144 146 148 152 157 169 181
 90 91 93 96 99 102 104 107 108 109 111 112 114 117 118 120 142 144 146 148 152 157 169 181


 93 96 99 102 104 107 108 109 111 112 114 117 118 120 142 144 146 148 152 157 169 181

 96 99 102 104 107 108


 99 102 104 107 108 109 111


 102 104 107 108 109 111 112 114 117 118 120 142 144 146 148 152 157 169 181


 104 107

 107 108 109 111 112 114 117 118 120 142 144 146 148 152 157 169 181


 108 109 111 112 114 117 118 120 142 144 146 148 152 157 169 181
 109 111 112 114
 111 112 114 117 118

 112 114 117 118 120 142 144 146 148 152 157 169 181
 114 117 118 120 142 144 146 148 152 157 169 181

 117 118 120 142 144 146 148 152 157 169 181


 118 120 142 144 146 148 152 157 169 181
 120 142 144 146 148 152 157 169 181

 142 144 146 148 152 157 169 181










 173 174 176 177 178





 138






 146 148 152
 147 149 150

 149



 153








 161 162 163
 162


 165



















 187 189


 189 195

 195








